instances/shortest_path/discrete_knapsack_uncertainty/nohadani_4_17.lp
\ Model nohadani_4_17
\ LP format - for model browsing. Use MPS format to capture full model detail.
\ Signature: 0x26b3cf7f3313a25f
Minimize
  77.87810988975015 y[0,1] + 31.76476034853718 y[0,3]
   + 77.87810988975015 y[1,0] + 9.848857801796104 y[1,2]
   + 61.98386886924694 y[1,3] + 9.848857801796104 y[2,1]
   + 71.58910531638176 y[2,3] + 31.76476034853718 y[3,0]
   + 61.98386886924694 y[3,1] + 71.58910531638176 y[3,2] + x[0,1] + x[0,3]
   + x[1,0] + x[1,2] + x[1,3] + x[2,1] + x[2,3] + x[3,0] + x[3,1] + x[3,2]
   + 7.787810988975015 r[0,1] + 3.176476034853718 r[0,3]
   + 7.787810988975015 r[1,0] + 0.9848857801796105 r[1,2]
   + 6.198386886924695 r[1,3] + 0.9848857801796105 r[2,1]
   + 7.158910531638177 r[2,3] + 3.176476034853718 r[3,0]
   + 6.198386886924695 r[3,1] + 7.158910531638177 r[3,2]
Subject To
 flow_cons_inner_nodes[1]: y[0,1] - y[1,0] - y[1,2] - y[1,3] + y[2,1]
   + y[3,1] = 0
 flow_cons_inner_nodes[3]: y[0,3] + y[1,3] + y[2,3] - y[3,0] - y[3,1]
   - y[3,2] = 0
 flow_cons_source: y[0,1] + y[0,3] - y[1,0] - y[3,0] = 1
 flow_cons_target: y[1,2] - y[2,1] - y[2,3] + y[3,2] = 1
 primal_lower: 4.919235871185604 x[0,1] + 3.930621604439432 x[0,3]
   + 1.251080398596808 x[1,0] + 2.828240306497273 x[1,2]
   + 2.102988396087266 x[1,3] + 7.233344565096072 x[2,1]
   + 0.7911471989080756 x[2,3] + 4.325035168501399 x[3,0]
   + 5.234647484687699 x[3,1] + 7.090241645351995 x[3,2] + 91 u[0,1]
   + 55 u[0,3] + 25 u[1,0] + 34 u[1,2] + 11 u[1,3] + 17 u[2,1] + 92 u[2,3]
   + 43 u[3,0] + 8 u[3,1] + 81 u[3,2] <= 92
 mccormick1[0,1]: - u[0,1] + r[0,1] <= 0
 mccormick1[0,3]: - u[0,3] + r[0,3] <= 0
 mccormick1[1,0]: - u[1,0] + r[1,0] <= 0
 mccormick1[1,2]: - u[1,2] + r[1,2] <= 0
 mccormick1[1,3]: - u[1,3] + r[1,3] <= 0
 mccormick1[2,1]: - u[2,1] + r[2,1] <= 0
 mccormick1[2,3]: - u[2,3] + r[2,3] <= 0
 mccormick1[3,0]: - u[3,0] + r[3,0] <= 0
 mccormick1[3,1]: - u[3,1] + r[3,1] <= 0
 mccormick1[3,2]: - u[3,2] + r[3,2] <= 0
 mccormick2[0,1]: - y[0,1] + r[0,1] <= 0
 mccormick2[0,3]: - y[0,3] + r[0,3] <= 0
 mccormick2[1,0]: - y[1,0] + r[1,0] <= 0
 mccormick2[1,2]: - y[1,2] + r[1,2] <= 0
 mccormick2[1,3]: - y[1,3] + r[1,3] <= 0
 mccormick2[2,1]: - y[2,1] + r[2,1] <= 0
 mccormick2[2,3]: - y[2,3] + r[2,3] <= 0
 mccormick2[3,0]: - y[3,0] + r[3,0] <= 0
 mccormick2[3,1]: - y[3,1] + r[3,1] <= 0
 mccormick2[3,2]: - y[3,2] + r[3,2] <= 0
 mccormick3[0,1]: - y[0,1] - u[0,1] + r[0,1] >= -1
 mccormick3[0,3]: - y[0,3] - u[0,3] + r[0,3] >= -1
 mccormick3[1,0]: - y[1,0] - u[1,0] + r[1,0] >= -1
 mccormick3[1,2]: - y[1,2] - u[1,2] + r[1,2] >= -1
 mccormick3[1,3]: - y[1,3] - u[1,3] + r[1,3] >= -1
 mccormick3[2,1]: - y[2,1] - u[2,1] + r[2,1] >= -1
 mccormick3[2,3]: - y[2,3] - u[2,3] + r[2,3] >= -1
 mccormick3[3,0]: - y[3,0] - u[3,0] + r[3,0] >= -1
 mccormick3[3,1]: - y[3,1] - u[3,1] + r[3,1] >= -1
 mccormick3[3,2]: - y[3,2] - u[3,2] + r[3,2] >= -1
Bounds
Binaries
 y[0,1] y[0,3] y[1,0] y[1,2] y[1,3] y[2,1] y[2,3] y[3,0] y[3,1] y[3,2]
 x[0,1] x[0,3] x[1,0] x[1,2] x[1,3] x[2,1] x[2,3] x[3,0] x[3,1] x[3,2]
 u[0,1] u[0,3] u[1,0] u[1,2] u[1,3] u[2,1] u[2,3] u[3,0] u[3,1] u[3,2]
 r[0,1] r[0,3] r[1,0] r[1,2] r[1,3] r[2,1] r[2,3] r[3,0] r[3,1] r[3,2]
End
